; Options: -q --produce-models --incremental --print-success --lang smt2.6 --arrays-exp
(set-logic ALL)

(declare-fun start!3091 () Bool)

(assert start!3091)

(declare-fun res!13613 () Bool)

(declare-fun e!9308 () Bool)

(assert (=> start!3091 (=> (not res!13613) (not e!9308))))

(declare-fun jz!49 () (_ BitVec 32))

(assert (=> start!3091 (= res!13613 (and (bvsle #b00000000000000000000000000000010 jz!49) (bvslt jz!49 #b00000000000000000000000000010011)))))

(assert (=> start!3091 e!9308))

(assert (=> start!3091 true))

(declare-datatypes ((array!1350 0))(
  ( (array!1351 (arr!587 (Array (_ BitVec 32) (_ BitVec 32))) (size!587 (_ BitVec 32))) )
))
(declare-fun iq!146 () array!1350)

(declare-fun array_inv!535 (array!1350) Bool)

(assert (=> start!3091 (array_inv!535 iq!146)))

(declare-datatypes ((array!1352 0))(
  ( (array!1353 (arr!588 (Array (_ BitVec 32) (_ FloatingPoint 11 53))) (size!588 (_ BitVec 32))) )
))
(declare-fun q!79 () array!1352)

(declare-fun array_inv!536 (array!1352) Bool)

(assert (=> start!3091 (array_inv!536 q!79)))

(declare-fun b!17185 () Bool)

(declare-fun res!13620 () Bool)

(assert (=> b!17185 (=> (not res!13620) (not e!9308))))

(declare-fun j!78 () (_ BitVec 32))

(assert (=> b!17185 (= res!13620 (bvsgt j!78 #b00000000000000000000000000000000))))

(declare-fun b!17186 () Bool)

(declare-fun e!9310 () Bool)

(declare-fun lt!8450 () (_ BitVec 32))

(assert (=> b!17186 (= e!9310 (and (bvsle lt!8450 #b00000000000000000000000000000000) (bvsgt lt!8450 #b00000000000000000000000000000000)))))

(assert (=> b!17186 (= lt!8450 (bvsub j!78 #b00000000000000000000000000000001))))

(declare-fun b!17187 () Bool)

(declare-fun res!13618 () Bool)

(assert (=> b!17187 (=> (not res!13618) (not e!9308))))

(declare-fun qInv!0 (array!1352) Bool)

(assert (=> b!17187 (= res!13618 (qInv!0 q!79))))

(declare-fun b!17188 () Bool)

(assert (=> b!17188 (= e!9308 e!9310)))

(declare-fun res!13616 () Bool)

(assert (=> b!17188 (=> (not res!13616) (not e!9310))))

(declare-fun z!100 () (_ FloatingPoint 11 53))

(declare-fun lt!8451 () (_ FloatingPoint 11 53))

(declare-fun QInt!0 ((_ BitVec 32)) Bool)

(assert (=> b!17188 (= res!13616 (QInt!0 (select (store (arr!587 iq!146) (bvsub jz!49 j!78) (ite (fp.isNaN (fp.sub roundNearestTiesToEven z!100 (fp.mul roundNearestTiesToEven (fp #b0 #b10000010111 #b0000000000000000000000000000000000000000000000000000) lt!8451))) #b00000000000000000000000000000000 (ite (fp.gt (fp.sub roundNearestTiesToEven z!100 (fp.mul roundNearestTiesToEven (fp #b0 #b10000010111 #b0000000000000000000000000000000000000000000000000000) lt!8451)) ((_ to_fp 11 53) roundTowardZero #b01111111111111111111111111111111)) #b01111111111111111111111111111111 (ite (fp.lt (fp.sub roundNearestTiesToEven z!100 (fp.mul roundNearestTiesToEven (fp #b0 #b10000010111 #b0000000000000000000000000000000000000000000000000000) lt!8451)) ((_ to_fp 11 53) roundTowardZero #b10000000000000000000000000000000)) #b10000000000000000000000000000000 ((_ fp.to_sbv 32) roundTowardZero (fp.sub roundNearestTiesToEven z!100 (fp.mul roundNearestTiesToEven (fp #b0 #b10000010111 #b0000000000000000000000000000000000000000000000000000) lt!8451))))))) (bvsub jz!49 j!78))))))

(assert (=> b!17188 (= lt!8451 ((_ to_fp 11 53) roundNearestTiesToEven (ite (fp.isNaN (fp.mul roundNearestTiesToEven (fp #b0 #b01111100111 #b0000000000000000000000000000000000000000000000000000) z!100)) #b00000000000000000000000000000000 (ite (fp.gt (fp.mul roundNearestTiesToEven (fp #b0 #b01111100111 #b0000000000000000000000000000000000000000000000000000) z!100) ((_ to_fp 11 53) roundTowardZero #b01111111111111111111111111111111)) #b01111111111111111111111111111111 (ite (fp.lt (fp.mul roundNearestTiesToEven (fp #b0 #b01111100111 #b0000000000000000000000000000000000000000000000000000) z!100) ((_ to_fp 11 53) roundTowardZero #b10000000000000000000000000000000)) #b10000000000000000000000000000000 ((_ fp.to_sbv 32) roundTowardZero (fp.mul roundNearestTiesToEven (fp #b0 #b01111100111 #b0000000000000000000000000000000000000000000000000000) z!100)))))))))

(declare-fun b!17189 () Bool)

(declare-fun res!13614 () Bool)

(assert (=> b!17189 (=> (not res!13614) (not e!9310))))

(assert (=> b!17189 (= res!13614 (and (fp.leq (fp #b0 #b00000000000 #b0000000000000000000000000000000000000000000000000000) lt!8451) (fp.leq lt!8451 (fp #b0 #b10000011001 #b0100000000000000000000010000000000000000000000000000))))))

(declare-fun b!17190 () Bool)

(declare-fun res!13615 () Bool)

(assert (=> b!17190 (=> (not res!13615) (not e!9310))))

(declare-fun P!3 ((_ FloatingPoint 11 53)) Bool)

(assert (=> b!17190 (= res!13615 (P!3 (select (arr!588 q!79) (bvsub j!78 #b00000000000000000000000000000001))))))

(declare-fun b!17191 () Bool)

(declare-fun res!13619 () Bool)

(assert (=> b!17191 (=> (not res!13619) (not e!9308))))

(assert (=> b!17191 (= res!13619 (and (bvsle #b00000000000000000000000000000000 j!78) (bvsle j!78 jz!49) (fp.leq (fp #b0 #b00000000000 #b0000000000000000000000000000000000000000000000000000) z!100) (fp.leq z!100 (fp #b0 #b10000110001 #b0100000000000000000000010011111111111111111111111100))))))

(declare-fun b!17192 () Bool)

(declare-fun res!13617 () Bool)

(assert (=> b!17192 (=> (not res!13617) (not e!9308))))

(declare-fun iqInv!0 (array!1350) Bool)

(assert (=> b!17192 (= res!13617 (iqInv!0 iq!146))))

(assert (= (and start!3091 res!13613) b!17187))

(assert (= (and b!17187 res!13618) b!17191))

(assert (= (and b!17191 res!13619) b!17192))

(assert (= (and b!17192 res!13617) b!17185))

(assert (= (and b!17185 res!13620) b!17188))

(assert (= (and b!17188 res!13616) b!17189))

(assert (= (and b!17189 res!13614) b!17190))

(assert (= (and b!17190 res!13615) b!17186))

(declare-fun m!27353 () Bool)

(assert (=> b!17192 m!27353))

(declare-fun m!27355 () Bool)

(assert (=> start!3091 m!27355))

(declare-fun m!27357 () Bool)

(assert (=> start!3091 m!27357))

(declare-fun m!27359 () Bool)

(assert (=> b!17190 m!27359))

(assert (=> b!17190 m!27359))

(declare-fun m!27361 () Bool)

(assert (=> b!17190 m!27361))

(declare-fun m!27363 () Bool)

(assert (=> b!17187 m!27363))

(declare-fun m!27365 () Bool)

(assert (=> b!17188 m!27365))

(declare-fun m!27367 () Bool)

(assert (=> b!17188 m!27367))

(assert (=> b!17188 m!27367))

(declare-fun m!27369 () Bool)

(assert (=> b!17188 m!27369))

(push 1)

(assert (not b!17192))

(assert (not start!3091))

(assert (not b!17188))

(assert (not b!17190))

(assert (not b!17187))

(check-sat)

(pop 1)

(push 1)

(check-sat)

(pop 1)

